VACCINE = Vaccine(1..3);
m = 24;
age = [AGED, AGED, YOUTH, YOUTH, ANCIENT, YOUTH, ADULT, SENIOR, SENIOR, BABY, SENIOR, CHILD, ANCIENT, ANCIENT, SENIOR, SENIOR, CHILD, SENIOR, YOUTH, AGED, YOUTH, BABY, YOUTH, ADULT];
gender = [OTHER, FEMALE, FEMALE, OTHER, OTHER, FEMALE, OTHER, FEMALE, FEMALE, FEMALE, OTHER, FEMALE, MALE, FEMALE, FEMALE, FEMALE, MALE, MALE, MALE, OTHER, MALE, OTHER, MALE, FEMALE];
health = [COMPROMISED, COMPROMISED, POOR, COMPROMISED, COMPROMISED, GOOD, COMPROMISED, GOOD, GOOD, COMPROMISED, COMPROMISED, COMPROMISED, GOOD, GOOD, POOR, GOOD, GOOD, POOR, POOR, GOOD, COMPROMISED, COMPROMISED, COMPROMISED, COMPROMISED];
exposure = [AVERAGE, LOW, LOW, HIGH, LOW, HIGH, HIGH, AVERAGE, LOW, HIGH, LOW, HIGH, HIGH, EXTREME, AVERAGE, HIGH, AVERAGE, EXTREME, AVERAGE, LOW, HIGH, LOW, EXTREME, AVERAGE];
size = [11, 10, 11, 14, 11, 14, 14, 13, 12, 12, 9, 12, 12, 9, 10, 14, 11, 13, 10, 11, 11, 13, 12, 9];
minsize = 9;
age_group_min = [0, 0, 0, 0, 0, 1, 1];
age_group_max = [21, 23, 15, 23, 24, 22, 13];
max_people_diff = 144;
max_share_vaccines = 3;
health_information = {7, 17, 22};
exposure_information = {5, 10, 13, 24};